c Generated map
c Size: 10 * 10, weights in range: 1 to 10, walls: False, with ratio 0.0
c dim 5 of 6
c
p sp 100 180
c graph contains 100 nodes and 180 arcs
c
a 1 11 2
a 11 1 2
a 1 2 1
a 2 1 1
a 2 12 4
a 12 2 4
a 2 3 4
a 3 2 4
a 3 13 5
a 13 3 5
a 3 4 8
a 4 3 8
a 4 14 2
a 14 4 2
a 4 5 3
a 5 4 3
a 5 15 2
a 15 5 2
a 5 6 3
a 6 5 3
a 6 16 8
a 16 6 8
a 6 7 1
a 7 6 1
a 7 17 1
a 17 7 1
a 7 8 6
a 8 7 6
a 8 18 6
a 18 8 6
a 8 9 10
a 9 8 10
a 9 19 10
a 19 9 10
a 9 10 9
a 10 9 9
a 10 20 4
a 20 10 4
a 11 21 8
a 21 11 8
a 11 12 10
a 12 11 10
a 12 22 8
a 22 12 8
a 12 13 6
a 13 12 6
a 13 23 9
a 23 13 9
a 13 14 6
a 14 13 6
a 14 24 3
a 24 14 3
a 14 15 8
a 15 14 8
a 15 25 5
a 25 15 5
a 15 16 8
a 16 15 8
a 16 26 3
a 26 16 3
a 16 17 9
a 17 16 9
a 17 27 9
a 27 17 9
a 17 18 1
a 18 17 1
a 18 28 4
a 28 18 4
a 18 19 9
a 19 18 9
a 19 29 10
a 29 19 10
a 19 20 3
a 20 19 3
a 20 30 1
a 30 20 1
a 21 31 4
a 31 21 4
a 21 22 4
a 22 21 4
a 22 32 3
a 32 22 3
a 22 23 1
a 23 22 1
a 23 33 2
a 33 23 2
a 23 24 2
a 24 23 2
a 24 34 3
a 34 24 3
a 24 25 3
a 25 24 3
a 25 35 5
a 35 25 5
a 25 26 1
a 26 25 1
a 26 36 9
a 36 26 9
a 26 27 1
a 27 26 1
a 27 37 1
a 37 27 1
a 27 28 7
a 28 27 7
a 28 38 7
a 38 28 7
a 28 29 1
a 29 28 1
a 29 39 10
a 39 29 10
a 29 30 3
a 30 29 3
a 30 40 9
a 40 30 9
a 31 41 1
a 41 31 1
a 31 32 8
a 32 31 8
a 32 42 6
a 42 32 6
a 32 33 10
a 33 32 10
a 33 43 4
a 43 33 4
a 33 34 7
a 34 33 7
a 34 44 10
a 44 34 10
a 34 35 2
a 35 34 2
a 35 45 5
a 45 35 5
a 35 36 5
a 36 35 5
a 36 46 1
a 46 36 1
a 36 37 6
a 37 36 6
a 37 47 4
a 47 37 4
a 37 38 10
a 38 37 10
a 38 48 9
a 48 38 9
a 38 39 2
a 39 38 2
a 39 49 8
a 49 39 8
a 39 40 1
a 40 39 1
a 40 50 7
a 50 40 7
a 41 51 10
a 51 41 10
a 41 42 9
a 42 41 9
a 42 52 3
a 52 42 3
a 42 43 8
a 43 42 8
a 43 53 5
a 53 43 5
a 43 44 4
a 44 43 4
a 44 54 4
a 54 44 4
a 44 45 2
a 45 44 2
a 45 55 5
a 55 45 5
a 45 46 2
a 46 45 2
a 46 56 2
a 56 46 2
a 46 47 4
a 47 46 4
a 47 57 4
a 57 47 4
a 47 48 9
a 48 47 9
a 48 58 8
a 58 48 8
a 48 49 3
a 49 48 3
a 49 59 1
a 59 49 1
a 49 50 2
a 50 49 2
a 50 60 4
a 60 50 4
a 51 61 10
a 61 51 10
a 51 52 6
a 52 51 6
a 52 62 3
a 62 52 3
a 52 53 2
a 53 52 2
a 53 63 3
a 63 53 3
a 53 54 2
a 54 53 2
a 54 64 2
a 64 54 2
a 54 55 2
a 55 54 2
a 55 65 2
a 65 55 2
a 55 56 10
a 56 55 10
a 56 66 4
a 66 56 4
a 56 57 3
a 57 56 3
a 57 67 10
a 67 57 10
a 57 58 5
a 58 57 5
a 58 68 9
a 68 58 9
a 58 59 4
a 59 58 4
a 59 69 6
a 69 59 6
a 59 60 5
a 60 59 5
a 60 70 9
a 70 60 9
a 61 71 1
a 71 61 1
a 61 62 9
a 62 61 9
a 62 72 1
a 72 62 1
a 62 63 2
a 63 62 2
a 63 73 3
a 73 63 3
a 63 64 9
a 64 63 9
a 64 74 10
a 74 64 10
a 64 65 6
a 65 64 6
a 65 75 3
a 75 65 3
a 65 66 3
a 66 65 3
a 66 76 10
a 76 66 10
a 66 67 6
a 67 66 6
a 67 77 1
a 77 67 1
a 67 68 9
a 68 67 9
a 68 78 9
a 78 68 9
a 68 69 3
a 69 68 3
a 69 79 5
a 79 69 5
a 69 70 8
a 70 69 8
a 70 80 1
a 80 70 1
a 71 81 4
a 81 71 4
a 71 72 6
a 72 71 6
a 72 82 10
a 82 72 10
a 72 73 7
a 73 72 7
a 73 83 4
a 83 73 4
a 73 74 2
a 74 73 2
a 74 84 6
a 84 74 6
a 74 75 10
a 75 74 10
a 75 85 10
a 85 75 10
a 75 76 7
a 76 75 7
a 76 86 2
a 86 76 2
a 76 77 8
a 77 76 8
a 77 87 6
a 87 77 6
a 77 78 3
a 78 77 3
a 78 88 10
a 88 78 10
a 78 79 8
a 79 78 8
a 79 89 10
a 89 79 10
a 79 80 8
a 80 79 8
a 80 90 1
a 90 80 1
a 81 91 3
a 91 81 3
a 81 82 7
a 82 81 7
a 82 92 2
a 92 82 2
a 82 83 1
a 83 82 1
a 83 93 9
a 93 83 9
a 83 84 9
a 84 83 9
a 84 94 3
a 94 84 3
a 84 85 7
a 85 84 7
a 85 95 5
a 95 85 5
a 85 86 3
a 86 85 3
a 86 96 3
a 96 86 3
a 86 87 5
a 87 86 5
a 87 97 1
a 97 87 1
a 87 88 4
a 88 87 4
a 88 98 6
a 98 88 6
a 88 89 8
a 89 88 8
a 89 99 10
a 99 89 10
a 89 90 5
a 90 89 5
a 90 100 8
a 100 90 8
a 91 92 8
a 92 91 8
a 92 93 2
a 93 92 2
a 93 94 9
a 94 93 9
a 94 95 10
a 95 94 10
a 95 96 5
a 96 95 5
a 96 97 7
a 97 96 7
a 97 98 9
a 98 97 9
a 98 99 9
a 99 98 9
a 99 100 7
a 100 99 7
